15998.11,43.53,49.45
14803.37,47.04,53.44
15785.31,44.12,50.12
11797.59,59.03,67.06
15480.25,44.99,51.1
14633.9,47.59,54.06
16276.45,42.79,48.61
15974.6,43.59,49.52
15065.22,46.23,52.51
15804.99,44.06,50.06
14929.16,46.65,52.99
14912.73,46.7,53.05
14460.17,48.16,54.71
13884.35,50.16,56.98
13705.53,50.81,57.72
15820.82,44.02,50.0
15663.97,44.46,50.51
14144.41,49.23,55.93
15464.55,45.03,51.16
16001.59,43.52,49.44
